50
10328

549 434
393 101
323 965
450 193
663 47
92 312
976 74
397 571
481 508
369 132
273 951
329 200
209 109
36 831
614 19
861 878
206 294
97 213
306 489
112 290
425 16
544 329
461 846
527 850
422 92
818 5
940 560
717 363
141 228
699 750
698 38
398 249
525 297
278 286
38 725
882 426
188 548
545 726
716 435
852 703
32 722
864 931
281 674
944 769
214 983
213 632
242 367
389 171
77 378
917 2
